288 311
588 230
334 475
551 403
424 349
125 304
679 112
552 58
425 4
107 468
152 258
25 204
579 159
643 440
91 489
136 426
690 381
563 327
264 135
246 299
482 218
527 155
419 445
446 46
364 282
556 419
692 238
346 446
328 110
564 29
